(set-logic QF_S)
(declare-fun var0 () String)
(declare-fun var8 () String)
(declare-fun var7 () String)
(declare-fun var6 () String)
(declare-fun var5 () String)
(declare-fun var4 () String)
(declare-fun var3 () String)
(declare-fun var2 () String)
(declare-fun var1 () String)
(assert (= var0 (Concat (Concat (Concat var8 var7) (Concat var6 var5)) (Concat (Concat var4 var3) (Concat var2 var1)))))
(assert (= var0 "solution"))
(check-sat)